p cnf 360 3352
1 2 3 4 5 6 7 8 9 0
10 11 12 13 14 15 16 17 18 0
19 20 21 22 23 24 25 26 27 0
28 29 30 31 32 33 34 35 36 0
37 38 39 40 41 42 43 44 45 0
46 47 48 49 50 51 52 53 54 0
55 56 57 58 59 60 61 62 63 0
64 65 66 67 68 69 70 71 72 0
73 74 75 76 77 78 79 80 81 0
82 83 84 85 86 87 88 89 90 0
91 92 93 94 95 96 97 98 99 0
100 101 102 103 104 105 106 107 108 0
109 110 111 112 113 114 115 116 117 0
118 119 120 121 122 123 124 125 126 0
127 128 129 130 131 132 133 134 135 0
136 137 138 139 140 141 142 143 144 0
145 146 147 148 149 150 151 152 153 0
154 155 156 157 158 159 160 161 162 0
163 164 165 166 167 168 169 170 171 0
172 173 174 175 176 177 178 179 180 0
181 182 183 184 185 186 187 188 189 0
190 191 192 193 194 195 196 197 198 0
199 200 201 202 203 204 205 206 207 0
208 209 210 211 212 213 214 215 216 0
217 218 219 220 221 222 223 224 225 0
226 227 228 229 230 231 232 233 234 0
235 236 237 238 239 240 241 242 243 0
244 245 246 247 248 249 250 251 252 0
253 254 255 256 257 258 259 260 261 0
262 263 264 265 266 267 268 269 270 0
271 272 273 274 275 276 277 278 279 0
280 281 282 283 284 285 286 287 288 0
289 290 291 292 293 294 295 296 297 0
298 299 300 301 302 303 304 305 306 0
307 308 309 310 311 312 313 314 315 0
316 317 318 319 320 321 322 323 324 0
325 326 327 328 329 330 331 332 333 0
334 335 336 337 338 339 340 341 342 0
343 344 345 346 347 348 349 350 351 0
352 353 354 355 356 357 358 359 360 0
-1 -2 0
-1 -3 0
-1 -4 0
-1 -5 0
-1 -6 0
-1 -7 0
-1 -8 0
-1 -9 0
-2 -3 0
-2 -4 0
-2 -5 0
-2 -6 0
-2 -7 0
-2 -8 0
-2 -9 0
-3 -4 0
-3 -5 0
-3 -6 0
-3 -7 0
-3 -8 0
-3 -9 0
-4 -5 0
-4 -6 0
-4 -7 0
-4 -8 0
-4 -9 0
-5 -6 0
-5 -7 0
-5 -8 0
-5 -9 0
-6 -7 0
-6 -8 0
-6 -9 0
-7 -8 0
-7 -9 0
-8 -9 0
-10 -11 0
-10 -12 0
-10 -13 0
-10 -14 0
-10 -15 0
-10 -16 0
-10 -17 0
-10 -18 0
-11 -12 0
-11 -13 0
-11 -14 0
-11 -15 0
-11 -16 0
-11 -17 0
-11 -18 0
-12 -13 0
-12 -14 0
-12 -15 0
-12 -16 0
-12 -17 0
-12 -18 0
-13 -14 0
-13 -15 0
-13 -16 0
-13 -17 0
-13 -18 0
-14 -15 0
-14 -16 0
-14 -17 0
-14 -18 0
-15 -16 0
-15 -17 0
-15 -18 0
-16 -17 0
-16 -18 0
-17 -18 0
-19 -20 0
-19 -21 0
-19 -22 0
-19 -23 0
-19 -24 0
-19 -25 0
-19 -26 0
-19 -27 0
-20 -21 0
-20 -22 0
-20 -23 0
-20 -24 0
-20 -25 0
-20 -26 0
-20 -27 0
-21 -22 0
-21 -23 0
-21 -24 0
-21 -25 0
-21 -26 0
-21 -27 0
-22 -23 0
-22 -24 0
-22 -25 0
-22 -26 0
-22 -27 0
-23 -24 0
-23 -25 0
-23 -26 0
-23 -27 0
-24 -25 0
-24 -26 0
-24 -27 0
-25 -26 0
-25 -27 0
-26 -27 0
-28 -29 0
-28 -30 0
-28 -31 0
-28 -32 0
-28 -33 0
-28 -34 0
-28 -35 0
-28 -36 0
-29 -30 0
-29 -31 0
-29 -32 0
-29 -33 0
-29 -34 0
-29 -35 0
-29 -36 0
-30 -31 0
-30 -32 0
-30 -33 0
-30 -34 0
-30 -35 0
-30 -36 0
-31 -32 0
-31 -33 0
-31 -34 0
-31 -35 0
-31 -36 0
-32 -33 0
-32 -34 0
-32 -35 0
-32 -36 0
-33 -34 0
-33 -35 0
-33 -36 0
-34 -35 0
-34 -36 0
-35 -36 0
-37 -38 0
-37 -39 0
-37 -40 0
-37 -41 0
-37 -42 0
-37 -43 0
-37 -44 0
-37 -45 0
-38 -39 0
-38 -40 0
-38 -41 0
-38 -42 0
-38 -43 0
-38 -44 0
-38 -45 0
-39 -40 0
-39 -41 0
-39 -42 0
-39 -43 0
-39 -44 0
-39 -45 0
-40 -41 0
-40 -42 0
-40 -43 0
-40 -44 0
-40 -45 0
-41 -42 0
-41 -43 0
-41 -44 0
-41 -45 0
-42 -43 0
-42 -44 0
-42 -45 0
-43 -44 0
-43 -45 0
-44 -45 0
-46 -47 0
-46 -48 0
-46 -49 0
-46 -50 0
-46 -51 0
-46 -52 0
-46 -53 0
-46 -54 0
-47 -48 0
-47 -49 0
-47 -50 0
-47 -51 0
-47 -52 0
-47 -53 0
-47 -54 0
-48 -49 0
-48 -50 0
-48 -51 0
-48 -52 0
-48 -53 0
-48 -54 0
-49 -50 0
-49 -51 0
-49 -52 0
-49 -53 0
-49 -54 0
-50 -51 0
-50 -52 0
-50 -53 0
-50 -54 0
-51 -52 0
-51 -53 0
-51 -54 0
-52 -53 0
-52 -54 0
-53 -54 0
-55 -56 0
-55 -57 0
-55 -58 0
-55 -59 0
-55 -60 0
-55 -61 0
-55 -62 0
-55 -63 0
-56 -57 0
-56 -58 0
-56 -59 0
-56 -60 0
-56 -61 0
-56 -62 0
-56 -63 0
-57 -58 0
-57 -59 0
-57 -60 0
-57 -61 0
-57 -62 0
-57 -63 0
-58 -59 0
-58 -60 0
-58 -61 0
-58 -62 0
-58 -63 0
-59 -60 0
-59 -61 0
-59 -62 0
-59 -63 0
-60 -61 0
-60 -62 0
-60 -63 0
-61 -62 0
-61 -63 0
-62 -63 0
-64 -65 0
-64 -66 0
-64 -67 0
-64 -68 0
-64 -69 0
-64 -70 0
-64 -71 0
-64 -72 0
-65 -66 0
-65 -67 0
-65 -68 0
-65 -69 0
-65 -70 0
-65 -71 0
-65 -72 0
-66 -67 0
-66 -68 0
-66 -69 0
-66 -70 0
-66 -71 0
-66 -72 0
-67 -68 0
-67 -69 0
-67 -70 0
-67 -71 0
-67 -72 0
-68 -69 0
-68 -70 0
-68 -71 0
-68 -72 0
-69 -70 0
-69 -71 0
-69 -72 0
-70 -71 0
-70 -72 0
-71 -72 0
-73 -74 0
-73 -75 0
-73 -76 0
-73 -77 0
-73 -78 0
-73 -79 0
-73 -80 0
-73 -81 0
-74 -75 0
-74 -76 0
-74 -77 0
-74 -78 0
-74 -79 0
-74 -80 0
-74 -81 0
-75 -76 0
-75 -77 0
-75 -78 0
-75 -79 0
-75 -80 0
-75 -81 0
-76 -77 0
-76 -78 0
-76 -79 0
-76 -80 0
-76 -81 0
-77 -78 0
-77 -79 0
-77 -80 0
-77 -81 0
-78 -79 0
-78 -80 0
-78 -81 0
-79 -80 0
-79 -81 0
-80 -81 0
-82 -83 0
-82 -84 0
-82 -85 0
-82 -86 0
-82 -87 0
-82 -88 0
-82 -89 0
-82 -90 0
-83 -84 0
-83 -85 0
-83 -86 0
-83 -87 0
-83 -88 0
-83 -89 0
-83 -90 0
-84 -85 0
-84 -86 0
-84 -87 0
-84 -88 0
-84 -89 0
-84 -90 0
-85 -86 0
-85 -87 0
-85 -88 0
-85 -89 0
-85 -90 0
-86 -87 0
-86 -88 0
-86 -89 0
-86 -90 0
-87 -88 0
-87 -89 0
-87 -90 0
-88 -89 0
-88 -90 0
-89 -90 0
-91 -92 0
-91 -93 0
-91 -94 0
-91 -95 0
-91 -96 0
-91 -97 0
-91 -98 0
-91 -99 0
-92 -93 0
-92 -94 0
-92 -95 0
-92 -96 0
-92 -97 0
-92 -98 0
-92 -99 0
-93 -94 0
-93 -95 0
-93 -96 0
-93 -97 0
-93 -98 0
-93 -99 0
-94 -95 0
-94 -96 0
-94 -97 0
-94 -98 0
-94 -99 0
-95 -96 0
-95 -97 0
-95 -98 0
-95 -99 0
-96 -97 0
-96 -98 0
-96 -99 0
-97 -98 0
-97 -99 0
-98 -99 0
-100 -101 0
-100 -102 0
-100 -103 0
-100 -104 0
-100 -105 0
-100 -106 0
-100 -107 0
-100 -108 0
-101 -102 0
-101 -103 0
-101 -104 0
-101 -105 0
-101 -106 0
-101 -107 0
-101 -108 0
-102 -103 0
-102 -104 0
-102 -105 0
-102 -106 0
-102 -107 0
-102 -108 0
-103 -104 0
-103 -105 0
-103 -106 0
-103 -107 0
-103 -108 0
-104 -105 0
-104 -106 0
-104 -107 0
-104 -108 0
-105 -106 0
-105 -107 0
-105 -108 0
-106 -107 0
-106 -108 0
-107 -108 0
-109 -110 0
-109 -111 0
-109 -112 0
-109 -113 0
-109 -114 0
-109 -115 0
-109 -116 0
-109 -117 0
-110 -111 0
-110 -112 0
-110 -113 0
-110 -114 0
-110 -115 0
-110 -116 0
-110 -117 0
-111 -112 0
-111 -113 0
-111 -114 0
-111 -115 0
-111 -116 0
-111 -117 0
-112 -113 0
-112 -114 0
-112 -115 0
-112 -116 0
-112 -117 0
-113 -114 0
-113 -115 0
-113 -116 0
-113 -117 0
-114 -115 0
-114 -116 0
-114 -117 0
-115 -116 0
-115 -117 0
-116 -117 0
-118 -119 0
-118 -120 0
-118 -121 0
-118 -122 0
-118 -123 0
-118 -124 0
-118 -125 0
-118 -126 0
-119 -120 0
-119 -121 0
-119 -122 0
-119 -123 0
-119 -124 0
-119 -125 0
-119 -126 0
-120 -121 0
-120 -122 0
-120 -123 0
-120 -124 0
-120 -125 0
-120 -126 0
-121 -122 0
-121 -123 0
-121 -124 0
-121 -125 0
-121 -126 0
-122 -123 0
-122 -124 0
-122 -125 0
-122 -126 0
-123 -124 0
-123 -125 0
-123 -126 0
-124 -125 0
-124 -126 0
-125 -126 0
-127 -128 0
-127 -129 0
-127 -130 0
-127 -131 0
-127 -132 0
-127 -133 0
-127 -134 0
-127 -135 0
-128 -129 0
-128 -130 0
-128 -131 0
-128 -132 0
-128 -133 0
-128 -134 0
-128 -135 0
-129 -130 0
-129 -131 0
-129 -132 0
-129 -133 0
-129 -134 0
-129 -135 0
-130 -131 0
-130 -132 0
-130 -133 0
-130 -134 0
-130 -135 0
-131 -132 0
-131 -133 0
-131 -134 0
-131 -135 0
-132 -133 0
-132 -134 0
-132 -135 0
-133 -134 0
-133 -135 0
-134 -135 0
-136 -137 0
-136 -138 0
-136 -139 0
-136 -140 0
-136 -141 0
-136 -142 0
-136 -143 0
-136 -144 0
-137 -138 0
-137 -139 0
-137 -140 0
-137 -141 0
-137 -142 0
-137 -143 0
-137 -144 0
-138 -139 0
-138 -140 0
-138 -141 0
-138 -142 0
-138 -143 0
-138 -144 0
-139 -140 0
-139 -141 0
-139 -142 0
-139 -143 0
-139 -144 0
-140 -141 0
-140 -142 0
-140 -143 0
-140 -144 0
-141 -142 0
-141 -143 0
-141 -144 0
-142 -143 0
-142 -144 0
-143 -144 0
-145 -146 0
-145 -147 0
-145 -148 0
-145 -149 0
-145 -150 0
-145 -151 0
-145 -152 0
-145 -153 0
-146 -147 0
-146 -148 0
-146 -149 0
-146 -150 0
-146 -151 0
-146 -152 0
-146 -153 0
-147 -148 0
-147 -149 0
-147 -150 0
-147 -151 0
-147 -152 0
-147 -153 0
-148 -149 0
-148 -150 0
-148 -151 0
-148 -152 0
-148 -153 0
-149 -150 0
-149 -151 0
-149 -152 0
-149 -153 0
-150 -151 0
-150 -152 0
-150 -153 0
-151 -152 0
-151 -153 0
-152 -153 0
-154 -155 0
-154 -156 0
-154 -157 0
-154 -158 0
-154 -159 0
-154 -160 0
-154 -161 0
-154 -162 0
-155 -156 0
-155 -157 0
-155 -158 0
-155 -159 0
-155 -160 0
-155 -161 0
-155 -162 0
-156 -157 0
-156 -158 0
-156 -159 0
-156 -160 0
-156 -161 0
-156 -162 0
-157 -158 0
-157 -159 0
-157 -160 0
-157 -161 0
-157 -162 0
-158 -159 0
-158 -160 0
-158 -161 0
-158 -162 0
-159 -160 0
-159 -161 0
-159 -162 0
-160 -161 0
-160 -162 0
-161 -162 0
-163 -164 0
-163 -165 0
-163 -166 0
-163 -167 0
-163 -168 0
-163 -169 0
-163 -170 0
-163 -171 0
-164 -165 0
-164 -166 0
-164 -167 0
-164 -168 0
-164 -169 0
-164 -170 0
-164 -171 0
-165 -166 0
-165 -167 0
-165 -168 0
-165 -169 0
-165 -170 0
-165 -171 0
-166 -167 0
-166 -168 0
-166 -169 0
-166 -170 0
-166 -171 0
-167 -168 0
-167 -169 0
-167 -170 0
-167 -171 0
-168 -169 0
-168 -170 0
-168 -171 0
-169 -170 0
-169 -171 0
-170 -171 0
-172 -173 0
-172 -174 0
-172 -175 0
-172 -176 0
-172 -177 0
-172 -178 0
-172 -179 0
-172 -180 0
-173 -174 0
-173 -175 0
-173 -176 0
-173 -177 0
-173 -178 0
-173 -179 0
-173 -180 0
-174 -175 0
-174 -176 0
-174 -177 0
-174 -178 0
-174 -179 0
-174 -180 0
-175 -176 0
-175 -177 0
-175 -178 0
-175 -179 0
-175 -180 0
-176 -177 0
-176 -178 0
-176 -179 0
-176 -180 0
-177 -178 0
-177 -179 0
-177 -180 0
-178 -179 0
-178 -180 0
-179 -180 0
-181 -182 0
-181 -183 0
-181 -184 0
-181 -185 0
-181 -186 0
-181 -187 0
-181 -188 0
-181 -189 0
-182 -183 0
-182 -184 0
-182 -185 0
-182 -186 0
-182 -187 0
-182 -188 0
-182 -189 0
-183 -184 0
-183 -185 0
-183 -186 0
-183 -187 0
-183 -188 0
-183 -189 0
-184 -185 0
-184 -186 0
-184 -187 0
-184 -188 0
-184 -189 0
-185 -186 0
-185 -187 0
-185 -188 0
-185 -189 0
-186 -187 0
-186 -188 0
-186 -189 0
-187 -188 0
-187 -189 0
-188 -189 0
-190 -191 0
-190 -192 0
-190 -193 0
-190 -194 0
-190 -195 0
-190 -196 0
-190 -197 0
-190 -198 0
-191 -192 0
-191 -193 0
-191 -194 0
-191 -195 0
-191 -196 0
-191 -197 0
-191 -198 0
-192 -193 0
-192 -194 0
-192 -195 0
-192 -196 0
-192 -197 0
-192 -198 0
-193 -194 0
-193 -195 0
-193 -196 0
-193 -197 0
-193 -198 0
-194 -195 0
-194 -196 0
-194 -197 0
-194 -198 0
-195 -196 0
-195 -197 0
-195 -198 0
-196 -197 0
-196 -198 0
-197 -198 0
-199 -200 0
-199 -201 0
-199 -202 0
-199 -203 0
-199 -204 0
-199 -205 0
-199 -206 0
-199 -207 0
-200 -201 0
-200 -202 0
-200 -203 0
-200 -204 0
-200 -205 0
-200 -206 0
-200 -207 0
-201 -202 0
-201 -203 0
-201 -204 0
-201 -205 0
-201 -206 0
-201 -207 0
-202 -203 0
-202 -204 0
-202 -205 0
-202 -206 0
-202 -207 0
-203 -204 0
-203 -205 0
-203 -206 0
-203 -207 0
-204 -205 0
-204 -206 0
-204 -207 0
-205 -206 0
-205 -207 0
-206 -207 0
-208 -209 0
-208 -210 0
-208 -211 0
-208 -212 0
-208 -213 0
-208 -214 0
-208 -215 0
-208 -216 0
-209 -210 0
-209 -211 0
-209 -212 0
-209 -213 0
-209 -214 0
-209 -215 0
-209 -216 0
-210 -211 0
-210 -212 0
-210 -213 0
-210 -214 0
-210 -215 0
-210 -216 0
-211 -212 0
-211 -213 0
-211 -214 0
-211 -215 0
-211 -216 0
-212 -213 0
-212 -214 0
-212 -215 0
-212 -216 0
-213 -214 0
-213 -215 0
-213 -216 0
-214 -215 0
-214 -216 0
-215 -216 0
-217 -218 0
-217 -219 0
-217 -220 0
-217 -221 0
-217 -222 0
-217 -223 0
-217 -224 0
-217 -225 0
-218 -219 0
-218 -220 0
-218 -221 0
-218 -222 0
-218 -223 0
-218 -224 0
-218 -225 0
-219 -220 0
-219 -221 0
-219 -222 0
-219 -223 0
-219 -224 0
-219 -225 0
-220 -221 0
-220 -222 0
-220 -223 0
-220 -224 0
-220 -225 0
-221 -222 0
-221 -223 0
-221 -224 0
-221 -225 0
-222 -223 0
-222 -224 0
-222 -225 0
-223 -224 0
-223 -225 0
-224 -225 0
-226 -227 0
-226 -228 0
-226 -229 0
-226 -230 0
-226 -231 0
-226 -232 0
-226 -233 0
-226 -234 0
-227 -228 0
-227 -229 0
-227 -230 0
-227 -231 0
-227 -232 0
-227 -233 0
-227 -234 0
-228 -229 0
-228 -230 0
-228 -231 0
-228 -232 0
-228 -233 0
-228 -234 0
-229 -230 0
-229 -231 0
-229 -232 0
-229 -233 0
-229 -234 0
-230 -231 0
-230 -232 0
-230 -233 0
-230 -234 0
-231 -232 0
-231 -233 0
-231 -234 0
-232 -233 0
-232 -234 0
-233 -234 0
-235 -236 0
-235 -237 0
-235 -238 0
-235 -239 0
-235 -240 0
-235 -241 0
-235 -242 0
-235 -243 0
-236 -237 0
-236 -238 0
-236 -239 0
-236 -240 0
-236 -241 0
-236 -242 0
-236 -243 0
-237 -238 0
-237 -239 0
-237 -240 0
-237 -241 0
-237 -242 0
-237 -243 0
-238 -239 0
-238 -240 0
-238 -241 0
-238 -242 0
-238 -243 0
-239 -240 0
-239 -241 0
-239 -242 0
-239 -243 0
-240 -241 0
-240 -242 0
-240 -243 0
-241 -242 0
-241 -243 0
-242 -243 0
-244 -245 0
-244 -246 0
-244 -247 0
-244 -248 0
-244 -249 0
-244 -250 0
-244 -251 0
-244 -252 0
-245 -246 0
-245 -247 0
-245 -248 0
-245 -249 0
-245 -250 0
-245 -251 0
-245 -252 0
-246 -247 0
-246 -248 0
-246 -249 0
-246 -250 0
-246 -251 0
-246 -252 0
-247 -248 0
-247 -249 0
-247 -250 0
-247 -251 0
-247 -252 0
-248 -249 0
-248 -250 0
-248 -251 0
-248 -252 0
-249 -250 0
-249 -251 0
-249 -252 0
-250 -251 0
-250 -252 0
-251 -252 0
-253 -254 0
-253 -255 0
-253 -256 0
-253 -257 0
-253 -258 0
-253 -259 0
-253 -260 0
-253 -261 0
-254 -255 0
-254 -256 0
-254 -257 0
-254 -258 0
-254 -259 0
-254 -260 0
-254 -261 0
-255 -256 0
-255 -257 0
-255 -258 0
-255 -259 0
-255 -260 0
-255 -261 0
-256 -257 0
-256 -258 0
-256 -259 0
-256 -260 0
-256 -261 0
-257 -258 0
-257 -259 0
-257 -260 0
-257 -261 0
-258 -259 0
-258 -260 0
-258 -261 0
-259 -260 0
-259 -261 0
-260 -261 0
-262 -263 0
-262 -264 0
-262 -265 0
-262 -266 0
-262 -267 0
-262 -268 0
-262 -269 0
-262 -270 0
-263 -264 0
-263 -265 0
-263 -266 0
-263 -267 0
-263 -268 0
-263 -269 0
-263 -270 0
-264 -265 0
-264 -266 0
-264 -267 0
-264 -268 0
-264 -269 0
-264 -270 0
-265 -266 0
-265 -267 0
-265 -268 0
-265 -269 0
-265 -270 0
-266 -267 0
-266 -268 0
-266 -269 0
-266 -270 0
-267 -268 0
-267 -269 0
-267 -270 0
-268 -269 0
-268 -270 0
-269 -270 0
-271 -272 0
-271 -273 0
-271 -274 0
-271 -275 0
-271 -276 0
-271 -277 0
-271 -278 0
-271 -279 0
-272 -273 0
-272 -274 0
-272 -275 0
-272 -276 0
-272 -277 0
-272 -278 0
-272 -279 0
-273 -274 0
-273 -275 0
-273 -276 0
-273 -277 0
-273 -278 0
-273 -279 0
-274 -275 0
-274 -276 0
-274 -277 0
-274 -278 0
-274 -279 0
-275 -276 0
-275 -277 0
-275 -278 0
-275 -279 0
-276 -277 0
-276 -278 0
-276 -279 0
-277 -278 0
-277 -279 0
-278 -279 0
-280 -281 0
-280 -282 0
-280 -283 0
-280 -284 0
-280 -285 0
-280 -286 0
-280 -287 0
-280 -288 0
-281 -282 0
-281 -283 0
-281 -284 0
-281 -285 0
-281 -286 0
-281 -287 0
-281 -288 0
-282 -283 0
-282 -284 0
-282 -285 0
-282 -286 0
-282 -287 0
-282 -288 0
-283 -284 0
-283 -285 0
-283 -286 0
-283 -287 0
-283 -288 0
-284 -285 0
-284 -286 0
-284 -287 0
-284 -288 0
-285 -286 0
-285 -287 0
-285 -288 0
-286 -287 0
-286 -288 0
-287 -288 0
-289 -290 0
-289 -291 0
-289 -292 0
-289 -293 0
-289 -294 0
-289 -295 0
-289 -296 0
-289 -297 0
-290 -291 0
-290 -292 0
-290 -293 0
-290 -294 0
-290 -295 0
-290 -296 0
-290 -297 0
-291 -292 0
-291 -293 0
-291 -294 0
-291 -295 0
-291 -296 0
-291 -297 0
-292 -293 0
-292 -294 0
-292 -295 0
-292 -296 0
-292 -297 0
-293 -294 0
-293 -295 0
-293 -296 0
-293 -297 0
-294 -295 0
-294 -296 0
-294 -297 0
-295 -296 0
-295 -297 0
-296 -297 0
-298 -299 0
-298 -300 0
-298 -301 0
-298 -302 0
-298 -303 0
-298 -304 0
-298 -305 0
-298 -306 0
-299 -300 0
-299 -301 0
-299 -302 0
-299 -303 0
-299 -304 0
-299 -305 0
-299 -306 0
-300 -301 0
-300 -302 0
-300 -303 0
-300 -304 0
-300 -305 0
-300 -306 0
-301 -302 0
-301 -303 0
-301 -304 0
-301 -305 0
-301 -306 0
-302 -303 0
-302 -304 0
-302 -305 0
-302 -306 0
-303 -304 0
-303 -305 0
-303 -306 0
-304 -305 0
-304 -306 0
-305 -306 0
-307 -308 0
-307 -309 0
-307 -310 0
-307 -311 0
-307 -312 0
-307 -313 0
-307 -314 0
-307 -315 0
-308 -309 0
-308 -310 0
-308 -311 0
-308 -312 0
-308 -313 0
-308 -314 0
-308 -315 0
-309 -310 0
-309 -311 0
-309 -312 0
-309 -313 0
-309 -314 0
-309 -315 0
-310 -311 0
-310 -312 0
-310 -313 0
-310 -314 0
-310 -315 0
-311 -312 0
-311 -313 0
-311 -314 0
-311 -315 0
-312 -313 0
-312 -314 0
-312 -315 0
-313 -314 0
-313 -315 0
-314 -315 0
-316 -317 0
-316 -318 0
-316 -319 0
-316 -320 0
-316 -321 0
-316 -322 0
-316 -323 0
-316 -324 0
-317 -318 0
-317 -319 0
-317 -320 0
-317 -321 0
-317 -322 0
-317 -323 0
-317 -324 0
-318 -319 0
-318 -320 0
-318 -321 0
-318 -322 0
-318 -323 0
-318 -324 0
-319 -320 0
-319 -321 0
-319 -322 0
-319 -323 0
-319 -324 0
-320 -321 0
-320 -322 0
-320 -323 0
-320 -324 0
-321 -322 0
-321 -323 0
-321 -324 0
-322 -323 0
-322 -324 0
-323 -324 0
-325 -326 0
-325 -327 0
-325 -328 0
-325 -329 0
-325 -330 0
-325 -331 0
-325 -332 0
-325 -333 0
-326 -327 0
-326 -328 0
-326 -329 0
-326 -330 0
-326 -331 0
-326 -332 0
-326 -333 0
-327 -328 0
-327 -329 0
-327 -330 0
-327 -331 0
-327 -332 0
-327 -333 0
-328 -329 0
-328 -330 0
-328 -331 0
-328 -332 0
-328 -333 0
-329 -330 0
-329 -331 0
-329 -332 0
-329 -333 0
-330 -331 0
-330 -332 0
-330 -333 0
-331 -332 0
-331 -333 0
-332 -333 0
-334 -335 0
-334 -336 0
-334 -337 0
-334 -338 0
-334 -339 0
-334 -340 0
-334 -341 0
-334 -342 0
-335 -336 0
-335 -337 0
-335 -338 0
-335 -339 0
-335 -340 0
-335 -341 0
-335 -342 0
-336 -337 0
-336 -338 0
-336 -339 0
-336 -340 0
-336 -341 0
-336 -342 0
-337 -338 0
-337 -339 0
-337 -340 0
-337 -341 0
-337 -342 0
-338 -339 0
-338 -340 0
-338 -341 0
-338 -342 0
-339 -340 0
-339 -341 0
-339 -342 0
-340 -341 0
-340 -342 0
-341 -342 0
-343 -344 0
-343 -345 0
-343 -346 0
-343 -347 0
-343 -348 0
-343 -349 0
-343 -350 0
-343 -351 0
-344 -345 0
-344 -346 0
-344 -347 0
-344 -348 0
-344 -349 0
-344 -350 0
-344 -351 0
-345 -346 0
-345 -347 0
-345 -348 0
-345 -349 0
-345 -350 0
-345 -351 0
-346 -347 0
-346 -348 0
-346 -349 0
-346 -350 0
-346 -351 0
-347 -348 0
-347 -349 0
-347 -350 0
-347 -351 0
-348 -349 0
-348 -350 0
-348 -351 0
-349 -350 0
-349 -351 0
-350 -351 0
-352 -353 0
-352 -354 0
-352 -355 0
-352 -356 0
-352 -357 0
-352 -358 0
-352 -359 0
-352 -360 0
-353 -354 0
-353 -355 0
-353 -356 0
-353 -357 0
-353 -358 0
-353 -359 0
-353 -360 0
-354 -355 0
-354 -356 0
-354 -357 0
-354 -358 0
-354 -359 0
-354 -360 0
-355 -356 0
-355 -357 0
-355 -358 0
-355 -359 0
-355 -360 0
-356 -357 0
-356 -358 0
-356 -359 0
-356 -360 0
-357 -358 0
-357 -359 0
-357 -360 0
-358 -359 0
-358 -360 0
-359 -360 0
-9 -39 0
-6 -42 0
-1 -39 0
-5 -37 0
-9 -44 0
-9 -37 0
-3 -37 0
-6 -39 0
-1 -61 0
-9 -61 0
-9 -58 0
-8 -61 0
-5 -60 0
-3 -62 0
-6 -55 0
-2 -57 0
-7 -157 0
-4 -158 0
-6 -158 0
-6 -159 0
-4 -157 0
-3 -156 0
-9 -159 0
-9 -162 0
-4 -164 0
-9 -167 0
-5 -167 0
-8 -169 0
-1 -170 0
-7 -164 0
-1 -163 0
-9 -170 0
-4 -215 0
-4 -214 0
-3 -215 0
-9 -210 0
-7 -213 0
-1 -213 0
-2 -215 0
-9 -214 0
-4 -225 0
-6 -224 0
-3 -225 0
-5 -224 0
-2 -217 0
-2 -223 0
-7 -220 0
-8 -217 0
-6 -228 0
-9 -227 0
-3 -232 0
-9 -230 0
-8 -231 0
-7 -229 0
-5 -234 0
-5 -226 0
-3 -313 0
-3 -315 0
-8 -313 0
-9 -310 0
-8 -309 0
-5 -309 0
-6 -308 0
-3 -311 0
-2 -325 0
-7 -330 0
-8 -328 0
-1 -327 0
-8 -330 0
-5 -329 0
-8 -332 0
-4 -332 0
-17 -23 0
-18 -23 0
-11 -24 0
-17 -26 0
-17 -25 0
-13 -25 0
-15 -24 0
-16 -21 0
-15 -28 0
-11 -32 0
-18 -28 0
-14 -28 0
-14 -33 0
-16 -30 0
-12 -36 0
-12 -32 0
-12 -40 0
-15 -38 0
-14 -43 0
-16 -38 0
-17 -45 0
-13 -45 0
-16 -39 0
-12 -38 0
-16 -60 0
-16 -59 0
-14 -57 0
-14 -55 0
-14 -60 0
-17 -57 0
-13 -58 0
-17 -61 0
-18 -146 0
-13 -150 0
-16 -147 0
-17 -152 0
-15 -147 0
-15 -151 0
-14 -151 0
-14 -146 0
-13 -223 0
-18 -220 0
-12 -218 0
-13 -224 0
-16 -224 0
-18 -221 0
-17 -221 0
-10 -217 0
-15 -258 0
-11 -259 0
-18 -261 0
-13 -253 0
-13 -256 0
-18 -258 0
-17 -253 0
-16 -261 0
-11 -279 0
-18 -272 0
-18 -277 0
-17 -274 0
-15 -278 0
-10 -278 0
-14 -273 0
-14 -271 0
-15 -339 0
-11 -335 0
-10 -338 0
-16 -341 0
-10 -337 0
-10 -339 0
-10 -336 0
-12 -336 0
-10 -347 0
-12 -348 0
-17 -349 0
-18 -344 0
-13 -351 0
-17 -343 0
-12 -351 0
-11 -347 0
-21 -49 0
-23 -52 0
-22 -47 0
-24 -54 0
-25 -47 0
-26 -47 0
-26 -52 0
-24 -53 0
-20 -89 0
-26 -84 0
-25 -88 0
-27 -90 0
-27 -88 0
-26 -87 0
-21 -87 0
-24 -83 0
-27 -118 0
-20 -121 0
-27 -119 0
-27 -123 0
-23 -120 0
-23 -125 0
-22 -121 0
-25 -125 0
-24 -135 0
-25 -130 0
-25 -128 0
-24 -129 0
-21 -132 0
-20 -134 0
-21 -133 0
-23 -135 0
-19 -184 0
-20 -184 0
-25 -189 0
-19 -181 0
-23 -185 0
-19 -183 0
-25 -186 0
-19 -182 0
-21 -224 0
-24 -222 0
-22 -222 0
-20 -217 0
-25 -219 0
-19 -225 0
-27 -225 0
-20 -219 0
-27 -259 0
-21 -257 0
-21 -259 0
-19 -253 0
-25 -259 0
-23 -258 0
-25 -260 0
-25 -258 0
-20 -266 0
-24 -270 0
-21 -262 0
-24 -264 0
-19 -262 0
-20 -267 0
-26 -265 0
-19 -266 0
-23 -277 0
-19 -277 0
-27 -271 0
-19 -271 0
-20 -277 0
-26 -272 0
-20 -273 0
-24 -273 0
-19 -300 0
-24 -305 0
-27 -303 0
-24 -306 0
-19 -304 0
-20 -304 0
-25 -298 0
-22 -300 0
-19 -330 0
-21 -328 0
-25 -332 0
-25 -331 0
-27 -325 0
-27 -326 0
-19 -327 0
-24 -331 0
-22 -348 0
-27 -344 0
-23 -345 0
-25 -346 0
-22 -345 0
-26 -351 0
-23 -350 0
-20 -345 0
-23 -357 0
-22 -354 0
-22 -356 0
-19 -352 0
-27 -356 0
-26 -356 0
-26 -359 0
-27 -358 0
-28 -92 0
-36 -94 0
-28 -99 0
-34 -96 0
-34 -91 0
-35 -99 0
-34 -99 0
-31 -98 0
-29 -192 0
-33 -191 0
-33 -193 0
-35 -197 0
-31 -192 0
-32 -190 0
-30 -194 0
-28 -193 0
-33 -272 0
-32 -274 0
-34 -278 0
-28 -276 0
-28 -273 0
-34 -279 0
-33 -277 0
-33 -278 0
-33 -289 0
-29 -294 0
-29 -296 0
-36 -295 0
-31 -295 0
-34 -295 0
-31 -291 0
-32 -295 0
-35 -333 0
-33 -327 0
-29 -329 0
-29 -328 0
-32 -328 0
-34 -326 0
-28 -328 0
-31 -327 0
-34 -334 0
-29 -341 0
-33 -342 0
-31 -339 0
-36 -335 0
-30 -339 0
-33 -336 0
-32 -334 0
-41 -46 0
-43 -49 0
-37 -48 0
-37 -54 0
-43 -47 0
-40 -54 0
-42 -47 0
-38 -52 0
-40 -60 0
-39 -59 0
-38 -63 0
-39 -63 0
-38 -59 0
-45 -62 0
-40 -58 0
-37 -61 0
-42 -100 0
-42 -104 0
-41 -106 0
-38 -104 0
-41 -107 0
-43 -106 0
-39 -103 0
-44 -108 0
-37 -115 0
-41 -110 0
-41 -113 0
-41 -115 0
-38 -111 0
-41 -116 0
-43 -111 0
-39 -111 0
-37 -125 0
-38 -118 0
-40 -118 0
-42 -124 0
-37 -119 0
-42 -119 0
-37 -122 0
-38 -124 0
-39 -128 0
-37 -134 0
-44 -130 0
-44 -131 0
-38 -128 0
-38 -135 0
-41 -135 0
-42 -131 0
-44 -208 0
-42 -213 0
-39 -210 0
-40 -216 0
-40 -208 0
-41 -212 0
-43 -208 0
-45 -210 0
-44 -296 0
-41 -289 0
-38 -290 0
-38 -297 0
-42 -297 0
-42 -293 0
-40 -295 0
-45 -297 0
-48 -72 0
-48 -68 0
-49 -70 0
-49 -65 0
-54 -71 0
-50 -66 0
-47 -64 0
-47 -68 0
-49 -84 0
-54 -89 0
-47 -85 0
-52 -85 0
-53 -87 0
-50 -89 0
-53 -86 0
-46 -84 0
-54 -102 0
-53 -102 0
-53 -103 0
-49 -101 0
-52 -102 0
-53 -105 0
-47 -101 0
-52 -108 0
-50 -122 0
-50 -119 0
-51 -121 0
-54 -122 0
-46 -118 0
-54 -121 0
-46 -119 0
-52 -122 0
-49 -131 0
-46 -135 0
-53 -134 0
-53 -128 0
-52 -128 0
-48 -135 0
-48 -128 0
-50 -127 0
-47 -139 0
-47 -142 0
-51 -144 0
-50 -139 0
-46 -144 0
-52 -139 0
-54 -142 0
-54 -137 0
-48 -168 0
-52 -167 0
-50 -163 0
-53 -171 0
-51 -171 0
-52 -165 0
-47 -171 0
-48 -163 0
-51 -183 0
-50 -187 0
-48 -184 0
-46 -187 0
-46 -188 0
-47 -185 0
-49 -188 0
-48 -187 0
-48 -192 0
-50 -198 0
-53 -197 0
-51 -194 0
-48 -197 0
-54 -190 0
-51 -193 0
-49 -194 0
-50 -215 0
-46 -213 0
-51 -214 0
-53 -213 0
-50 -211 0
-54 -209 0
-49 -216 0
-48 -210 0
-49 -268 0
-49 -266 0
-54 -270 0
-49 -263 0
-54 -267 0
-52 -268 0
-50 -264 0
-46 -265 0
-46 -298 0
-53 -299 0
-53 -301 0
-51 -298 0
-49 -301 0
-52 -300 0
-53 -298 0
-47 -300 0
-54 -315 0
-47 -308 0
-51 -314 0
-50 -315 0
-54 -307 0
-48 -310 0
-53 -313 0
-46 -313 0
-47 -348 0
-53 -344 0
-52 -347 0
-49 -345 0
-53 -351 0
-54 -351 0
-47 -350 0
-50 -345 0
-63 -108 0
-57 -101 0
-57 -107 0
-60 -100 0
-55 -108 0
-62 -101 0
-56 -107 0
-62 -103 0
-58 -127 0
-59 -129 0
-63 -130 0
-56 -130 0
-57 -129 0
-57 -135 0
-61 -128 0
-61 -132 0
-56 -160 0
-59 -161 0
-59 -156 0
-63 -154 0
-61 -154 0
-58 -161 0
-55 -154 0
-56 -162 0
-59 -183 0
-58 -187 0
-62 -183 0
-59 -181 0
-61 -187 0
-58 -185 0
-62 -181 0
-57 -186 0
-58 -193 0
-57 -193 0
-57 -191 0
-56 -194 0
-63 -192 0
-60 -198 0
-62 -197 0
-55 -191 0
-56 -205 0
-58 -201 0
-56 -202 0
-59 -202 0
-55 -200 0
-58 -204 0
-60 -201 0
-63 -201 0
-56 -226 0
-61 -233 0
-63 -228 0
-59 -234 0
-63 -234 0
-62 -228 0
-62 -233 0
-60 -230 0
-61 -253 0
-61 -256 0
-61 -259 0
-62 -259 0
-62 -258 0
-56 -256 0
-59 -257 0
-56 -260 0
-56 -279 0
-56 -273 0
-61 -274 0
-60 -279 0
-63 -272 0
-59 -274 0
-61 -272 0
-62 -275 0
-58 -292 0
-56 -292 0
-58 -293 0
-61 -293 0
-61 -294 0
-62 -290 0
-62 -296 0
-60 -294 0
-63 -304 0
-63 -305 0
-63 -302 0
-59 -299 0
-56 -299 0
-63 -303 0
-55 -302 0
-55 -304 0
-58 -310 0
-63 -309 0
-57 -310 0
-55 -311 0
-63 -314 0
-63 -308 0
-59 -308 0
-61 -311 0
-61 -321 0
-58 -316 0
-56 -317 0
-55 -324 0
-61 -319 0
-58 -323 0
-63 -322 0
-63 -316 0
-65 -89 0
-68 -84 0
-70 -87 0
-72 -83 0
-68 -89 0
-65 -84 0
-68 -85 0
-69 -82 0
-72 -155 0
-66 -156 0
-71 -162 0
-71 -159 0
-69 -160 0
-64 -159 0
-69 -157 0
-66 -161 0
-69 -176 0
-71 -173 0
-65 -176 0
-65 -177 0
-64 -174 0
-64 -175 0
-67 -179 0
-72 -179 0
-65 -203 0
-64 -202 0
-68 -203 0
-71 -207 0
-66 -202 0
-68 -207 0
-65 -199 0
-66 -207 0
-71 -222 0
-68 -224 0
-71 -225 0
-71 -221 0
-66 -224 0
-67 -224 0
-72 -223 0
-68 -219 0
-70 -227 0
-66 -232 0
-70 -228 0
-67 -232 0
-70 -231 0
-69 -229 0
-66 -229 0
-65 -233 0
-64 -236 0
-71 -243 0
-66 -243 0
-66 -236 0
-71 -237 0
-67 -236 0
-68 -242 0
-66 -241 0
-67 -257 0
-69 -258 0
-72 -253 0
-66 -255 0
-71 -255 0
-70 -253 0
-72 -261 0
-72 -259 0
-69 -275 0
-66 -279 0
-64 -274 0
-70 -278 0
-67 -278 0
-67 -275 0
-70 -271 0
-65 -274 0
-65 -286 0
-69 -282 0
-69 -281 0
-64 -284 0
-69 -286 0
-66 -288 0
-69 -283 0
-72 -282 0
-66 -295 0
-69 -294 0
-70 -293 0
-64 -294 0
-67 -296 0
-65 -297 0
-72 -295 0
-68 -293 0
-65 -299 0
-64 -305 0
-68 -306 0
-67 -301 0
-69 -306 0
-64 -302 0
-69 -304 0
-71 -306 0
-67 -309 0
-65 -310 0
-66 -308 0
-71 -309 0
-72 -314 0
-66 -315 0
-67 -315 0
-71 -310 0
-68 -343 0
-71 -349 0
-67 -344 0
-65 -348 0
-66 -348 0
-69 -349 0
-69 -345 0
-68 -347 0
-73 -95 0
-73 -94 0
-78 -91 0
-78 -97 0
-80 -94 0
-79 -96 0
-81 -96 0
-80 -92 0
-74 -113 0
-81 -112 0
-77 -117 0
-73 -111 0
-80 -114 0
-76 -117 0
-78 -109 0
-74 -110 0
-77 -136 0
-75 -139 0
-74 -139 0
-73 -137 0
-76 -140 0
-73 -141 0
-80 -138 0
-74 -137 0
-78 -147 0
-81 -149 0
-73 -150 0
-78 -148 0
-75 -145 0
-73 -145 0
-76 -145 0
-78 -152 0
-80 -161 0
-79 -155 0
-74 -158 0
-73 -155 0
-75 -161 0
-78 -159 0
-74 -159 0
-76 -161 0
-75 -174 0
-77 -173 0
-75 -180 0
-73 -176 0
-80 -173 0
-79 -175 0
-80 -175 0
-76 -176 0
-75 -237 0
-79 -240 0
-79 -235 0
-80 -235 0
-79 -237 0
-77 -239 0
-80 -239 0
-75 -242 0
-79 -266 0
-78 -264 0
-79 -269 0
-75 -269 0
-80 -270 0
-81 -263 0
-81 -267 0
-74 -263 0
-77 -275 0
-78 -271 0
-77 -278 0
-81 -273 0
-77 -272 0
-75 -271 0
-81 -276 0
-77 -273 0
-78 -285 0
-74 -284 0
-80 -286 0
-76 -286 0
-81 -281 0
-77 -283 0
-79 -286 0
-81 -286 0
-76 -296 0
-80 -290 0
-73 -289 0
-78 -296 0
-81 -289 0
-78 -291 0
-77 -294 0
-75 -292 0
-77 -315 0
-76 -315 0
-73 -308 0
-80 -307 0
-79 -311 0
-80 -312 0
-76 -307 0
-78 -311 0
-77 -341 0
-79 -335 0
-75 -335 0
-76 -334 0
-81 -338 0
-76 -342 0
-77 -338 0
-74 -336 0
-76 -349 0
-73 -345 0
-76 -344 0
-81 -351 0
-77 -346 0
-77 -350 0
-78 -350 0
-77 -343 0
-90 -106 0
-87 -100 0
-89 -105 0
-88 -108 0
-85 -106 0
-90 -104 0
-86 -106 0
-86 -100 0
-85 -116 0
-90 -111 0
-87 -113 0
-84 -110 0
-86 -115 0
-89 -109 0
-87 -114 0
-86 -114 0
-90 -176 0
-87 -172 0
-84 -174 0
-85 -178 0
-90 -179 0
-89 -179 0
-90 -180 0
-83 -172 0
-82 -212 0
-82 -215 0
-87 -215 0
-90 -214 0
-84 -209 0
-90 -215 0
-83 -208 0
-86 -208 0
-87 -218 0
-87 -224 0
-82 -221 0
-86 -218 0
-89 -219 0
-84 -223 0
-83 -224 0
-90 -221 0
-88 -229 0
-85 -233 0
-86 -234 0
-88 -232 0
-85 -229 0
-85 -227 0
-87 -230 0
-90 -232 0
-82 -251 0
-85 -248 0
-84 -247 0
-88 -245 0
-85 -245 0
-90 -246 0
-86 -244 0
-86 -245 0
-88 -262 0
-87 -263 0
-90 -265 0
-82 -265 0
-88 -265 0
-84 -265 0
-88 -266 0
-82 -264 0
-86 -320 0
-85 -318 0
-83 -316 0
-85 -324 0
-82 -321 0
-84 -320 0
-84 -319 0
-86 -323 0
-84 -360 0
-83 -360 0
-82 -354 0
-84 -357 0
-83 -358 0
-82 -352 0
-85 -353 0
-88 -359 0
-96 -142 0
-98 -136 0
-97 -142 0
-92 -138 0
-96 -144 0
-97 -138 0
-96 -136 0
-94 -144 0
-99 -191 0
-99 -196 0
-95 -190 0
-95 -195 0
-98 -194 0
-91 -197 0
-97 -190 0
-96 -193 0
-94 -217 0
-99 -224 0
-98 -225 0
-91 -217 0
-99 -219 0
-98 -222 0
-91 -225 0
-97 -218 0
-99 -246 0
-97 -244 0
-95 -248 0
-96 -248 0
-96 -251 0
-99 -251 0
-98 -247 0
-91 -245 0
-91 -279 0
-92 -276 0
-97 -279 0
-94 -276 0
-93 -278 0
-91 -275 0
-92 -274 0
-94 -272 0
-98 -280 0
-95 -284 0
-93 -288 0
-98 -281 0
-97 -285 0
-95 -283 0
-99 -286 0
-99 -285 0
-96 -292 0
-98 -291 0
-99 -293 0
-95 -290 0
-92 -294 0
-95 -295 0
-98 -289 0
-97 -290 0
-95 -305 0
-97 -298 0
-96 -301 0
-91 -305 0
-97 -303 0
-91 -302 0
-93 -302 0
-95 -298 0
-106 -153 0
-107 -152 0
-107 -151 0
-101 -148 0
-106 -149 0
-106 -148 0
-106 -145 0
-106 -151 0
-101 -173 0
-106 -179 0
-104 -178 0
-102 -175 0
-101 -176 0
-107 -176 0
-105 -174 0
-105 -175 0
-102 -222 0
-105 -219 0
-101 -222 0
-100 -219 0
-102 -225 0
-107 -220 0
-107 -219 0
-104 -219 0
-102 -275 0
-105 -278 0
-108 -275 0
-105 -276 0
-108 -277 0
-105 -272 0
-106 -276 0
-107 -277 0
-107 -291 0
-105 -291 0
-105 -295 0
-101 -294 0
-105 -297 0
-107 -297 0
-100 -291 0
-101 -292 0
-107 -308 0
-107 -312 0
-100 -314 0
-100 -309 0
-105 -314 0
-103 -312 0
-102 -315 0
-101 -308 0
-108 -339 0
-100 -336 0
-108 -340 0
-106 -338 0
-101 -334 0
-101 -342 0
-100 -341 0
-101 -335 0
-102 -355 0
-102 -352 0
-102 -360 0
-104 -360 0
-103 -356 0
-104 -359 0
-101 -358 0
-104 -355 0
-112 -144 0
-111 -143 0
-109 -137 0
-113 -136 0
-112 -138 0
-109 -142 0
-117 -136 0
-110 -138 0
-110 -160 0
-116 -154 0
-110 -158 0
-115 -159 0
-112 -159 0
-109 -154 0
-115 -157 0
-114 -160 0
-116 -170 0
-117 -167 0
-115 -169 0
-113 -168 0
-114 -164 0
-110 -168 0
-116 -171 0
-116 -169 0
-124 -239 0
-118 -239 0
-122 -238 0
-122 -237 0
-124 -238 0
-124 -243 0
-120 -237 0
-125 -238 0
-125 -252 0
-121 -249 0
-119 -252 0
-123 -251 0
-123 -250 0
-121 -252 0
-123 -246 0
-122 -250 0
-125 -281 0
-123 -287 0
-124 -287 0
-119 -286 0
-126 -287 0
-118 -283 0
-120 -281 0
-120 -286 0
-121 -295 0
-118 -293 0
-118 -291 0
-124 -294 0
-122 -297 0
-122 -296 0
-118 -292 0
-120 -296 0
-124 -301 0
-119 -306 0
-118 -302 0
-118 -306 0
-120 -302 0
-121 -299 0
-119 -302 0
-123 -298 0
-123 -325 0
-124 -329 0
-122 -328 0
-118 -331 0
-120 -326 0
-120 -330 0
-124 -331 0
-119 -329 0
-125 -348 0
-124 -345 0
-121 -343 0
-118 -343 0
-124 -350 0
-118 -347 0
-125 -345 0
-120 -348 0
-118 -356 0
-119 -356 0
-120 -352 0
-119 -352 0
-124 -352 0
-125 -353 0
-126 -356 0
-122 -358 0
-129 -138 0
-131 -136 0
-133 -139 0
-127 -139 0
-135 -136 0
-132 -142 0
-132 -138 0
-134 -144 0
-130 -166 0
-134 -171 0
-128 -171 0
-132 -167 0
-132 -171 0
-131 -167 0
-134 -163 0
-133 -167 0
-133 -242 0
-128 -237 0
-133 -240 0
-132 -241 0
-131 -240 0
-134 -243 0
-128 -239 0
-130 -241 0
-129 -267 0
-127 -262 0
-133 -266 0
-132 -269 0
-131 -268 0
-128 -267 0
-128 -262 0
-130 -267 0
-131 -296 0
-134 -294 0
-128 -290 0
-127 -292 0
-128 -292 0
-131 -291 0
-129 -291 0
-131 -293 0
-131 -349 0
-127 -343 0
-128 -346 0
-131 -346 0
-134 -347 0
-134 -351 0
-130 -347 0
-135 -350 0
-135 -355 0
-127 -357 0
-135 -357 0
-132 -356 0
-128 -360 0
-130 -352 0
-134 -352 0
-132 -357 0
-141 -156 0
-137 -159 0
-136 -155 0
-144 -154 0
-143 -155 0
-136 -161 0
-138 -162 0
-142 -158 0
-137 -175 0
-137 -173 0
-144 -174 0
-141 -179 0
-139 -174 0
-142 -174 0
-136 -180 0
-144 -178 0
-144 -207 0
-141 -199 0
-141 -206 0
-138 -203 0
-140 -202 0
-143 -204 0
-142 -200 0
-136 -204 0
-140 -228 0
-136 -226 0
-144 -234 0
-136 -232 0
-139 -231 0
-136 -229 0
-138 -231 0
-138 -228 0
-139 -252 0
-141 -250 0
-137 -245 0
-144 -246 0
-142 -252 0
-143 -247 0
-144 -250 0
-140 -249 0
-142 -257 0
-144 -261 0
-139 -253 0
-138 -259 0
-139 -261 0
-140 -254 0
-139 -254 0
-141 -257 0
-147 -160 0
-145 -157 0
-148 -156 0
-149 -161 0
-147 -161 0
-150 -154 0
-146 -156 0
-147 -158 0
-145 -182 0
-146 -184 0
-151 -189 0
-153 -185 0
-152 -187 0
-145 -189 0
-147 -181 0
-147 -182 0
-153 -191 0
-153 -197 0
-152 -194 0
-145 -197 0
-147 -193 0
-149 -193 0
-152 -190 0
-150 -196 0
-148 -203 0
-145 -204 0
-149 -207 0
-153 -199 0
-146 -200 0
-145 -201 0
-148 -205 0
-146 -205 0
-151 -210 0
-150 -211 0
-149 -211 0
-145 -213 0
-149 -215 0
-152 -209 0
-151 -208 0
-148 -208 0
-147 -227 0
-152 -232 0
-147 -233 0
-149 -234 0
-146 -231 0
-146 -232 0
-150 -233 0
-149 -229 0
-146 -236 0
-146 -237 0
-148 -236 0
-152 -243 0
-151 -237 0
-153 -242 0
-153 -240 0
-151 -243 0
-149 -286 0
-148 -281 0
-151 -287 0
-152 -285 0
-150 -287 0
-147 -284 0
-150 -285 0
-151 -283 0
-147 -326 0
-153 -328 0
-146 -326 0
-148 -333 0
-149 -333 0
-151 -325 0
-150 -328 0
-153 -330 0
-150 -340 0
-150 -341 0
-146 -335 0
-153 -339 0
-145 -342 0
-150 -334 0
-146 -337 0
-149 -339 0
-152 -357 0
-149 -359 0
-148 -359 0
-145 -356 0
-146 -358 0
-147 -360 0
-152 -353 0
-145 -354 0
-157 -190 0
-157 -193 0
-156 -193 0
-158 -192 0
-158 -193 0
-154 -197 0
-161 -195 0
-159 -190 0
-156 -212 0
-160 -210 0
-156 -208 0
-162 -208 0
-157 -209 0
-159 -212 0
-159 -216 0
-156 -210 0
-162 -244 0
-154 -246 0
-157 -252 0
-161 -251 0
-159 -252 0
-160 -249 0
-158 -245 0
-160 -250 0
-158 -269 0
-162 -270 0
-157 -266 0
-157 -268 0
-155 -268 0
-160 -265 0
-155 -265 0
-162 -266 0
-155 -283 0
-157 -280 0
-160 -280 0
-155 -282 0
-154 -288 0
-155 -280 0
-155 -288 0
-159 -288 0
-155 -292 0
-156 -291 0
-158 -290 0
-155 -296 0
-160 -294 0
-162 -295 0
-156 -294 0
-154 -294 0
-159 -330 0
-154 -331 0
-158 -332 0
-158 -328 0
-159 -331 0
-156 -331 0
-159 -332 0
-157 -328 0
-154 -360 0
-154 -353 0
-161 -359 0
-157 -358 0
-159 -358 0
-160 -352 0
-162 -352 0
-157 -357 0
-170 -176 0
-169 -172 0
-170 -180 0
-163 -176 0
-169 -179 0
-170 -179 0
-166 -179 0
-166 -174 0
-164 -227 0
-171 -234 0
-170 -232 0
-169 -228 0
-171 -233 0
-167 -234 0
-171 -230 0
-163 -232 0
-164 -281 0
-167 -287 0
-166 -281 0
-163 -281 0
-163 -284 0
-165 -288 0
-171 -281 0
-168 -281 0
-167 -300 0
-169 -299 0
-171 -300 0
-168 -298 0
-166 -302 0
-170 -303 0
-163 -300 0
-165 -300 0
-171 -312 0
-166 -307 0
-170 -308 0
-167 -311 0
-168 -307 0
-168 -313 0
-169 -312 0
-170 -315 0
-166 -352 0
-171 -355 0
-165 -357 0
-171 -358 0
-165 -358 0
-166 -360 0
-169 -353 0
-167 -352 0
-176 -221 0
-180 -224 0
-180 -220 0
-177 -218 0
-178 -225 0
-179 -220 0
-175 -220 0
-173 -225 0
-173 -230 0
-176 -231 0
-177 -230 0
-177 -229 0
-178 -226 0
-175 -234 0
-180 -226 0
-175 -232 0
-178 -277 0
-180 -277 0
-174 -278 0
-176 -278 0
-179 -274 0
-173 -272 0
-177 -275 0
-178 -275 0
-185 -196 0
-188 -198 0
-184 -192 0
-187 -198 0
-184 -194 0
-184 -198 0
-188 -197 0
-188 -191 0
-185 -220 0
-187 -220 0
-188 -223 0
-184 -225 0
-185 -219 0
-181 -224 0
-187 -219 0
-184 -223 0
-187 -258 0
-185 -253 0
-189 -253 0
-182 -253 0
-183 -259 0
-184 -253 0
-181 -253 0
-187 -257 0
-188 -283 0
-181 -282 0
-183 -282 0
-183 -281 0
-184 -280 0
-187 -286 0
-184 -284 0
-186 -286 0
-184 -305 0
-189 -303 0
-188 -301 0
-182 -300 0
-186 -304 0
-189 -305 0
-183 -303 0
-186 -298 0
-182 -311 0
-184 -311 0
-181 -312 0
-182 -315 0
-187 -309 0
-188 -307 0
-186 -309 0
-181 -313 0
-195 -255 0
-196 -261 0
-190 -257 0
-192 -257 0
-197 -261 0
-191 -257 0
-191 -261 0
-195 -256 0
-195 -289 0
-195 -291 0
-195 -295 0
-197 -297 0
-196 -289 0
-196 -297 0
-193 -292 0
-194 -296 0
-190 -316 0
-191 -324 0
-190 -320 0
-196 -318 0
-191 -318 0
-194 -319 0
-197 -321 0
-198 -319 0
-201 -210 0
-206 -216 0
-206 -211 0
-204 -212 0
-204 -208 0
-201 -215 0
-205 -213 0
-204 -210 0
-201 -230 0
-199 -227 0
-205 -226 0
-200 -231 0
-202 -231 0
-203 -233 0
-203 -228 0
-206 -231 0
-207 -265 0
-203 -263 0
-201 -266 0
-207 -266 0
-206 -262 0
-203 -267 0
-207 -270 0
-199 -267 0
-200 -314 0
-205 -309 0
-202 -312 0
-202 -313 0
-205 -312 0
-199 -309 0
-199 -312 0
-201 -314 0
-205 -328 0
-199 -333 0
-204 -328 0
-201 -328 0
-207 -326 0
-201 -332 0
-199 -330 0
-201 -330 0
-211 -241 0
-213 -235 0
-212 -238 0
-214 -235 0
-216 -236 0
-208 -236 0
-211 -239 0
-216 -241 0
-209 -247 0
-215 -251 0
-212 -250 0
-211 -245 0
-213 -246 0
-213 -251 0
-213 -249 0
-214 -250 0
-214 -264 0
-212 -265 0
-215 -266 0
-216 -269 0
-215 -264 0
-216 -264 0
-208 -264 0
-210 -269 0
-214 -325 0
-209 -327 0
-212 -328 0
-214 -331 0
-210 -326 0
-210 -330 0
-211 -328 0
-213 -327 0
-214 -355 0
-208 -356 0
-215 -360 0
-213 -355 0
-210 -359 0
-215 -357 0
-208 -353 0
-214 -358 0
-217 -238 0
-217 -242 0
-225 -243 0
-225 -235 0
-223 -239 0
-217 -240 0
-222 -236 0
-221 -242 0
-217 -293 0
-225 -297 0
-219 -291 0
-224 -295 0
-221 -294 0
-218 -290 0
-217 -290 0
-224 -297 0
-218 -301 0
-225 -303 0
-219 -306 0
-218 -298 0
-217 -300 0
-222 -305 0
-224 -300 0
-217 -299 0
-217 -308 0
-222 -315 0
-217 -309 0
-223 -310 0
-218 -311 0
-223 -308 0
-224 -308 0
-217 -315 0
-226 -247 0
-230 -246 0
-226 -250 0
-233 -244 0
-231 -252 0
-232 -248 0
-228 -244 0
-233 -248 0
-232 -263 0
-232 -262 0
-231 -270 0
-233 -264 0
-228 -262 0
-227 -263 0
-231 -264 0
-229 -266 0
-240 -283 0
-237 -283 0
-242 -285 0
-238 -283 0
-238 -282 0
-241 -282 0
-242 -282 0
-242 -284 0
-239 -318 0
-243 -317 0
-241 -324 0
-241 -320 0
-237 -317 0
-240 -322 0
-238 -318 0
-243 -321 0
-239 -341 0
-242 -338 0
-240 -334 0
-236 -336 0
-236 -341 0
-236 -335 0
-240 -337 0
-241 -335 0
-241 -353 0
-238 -358 0
-240 -355 0
-241 -354 0
-241 -359 0
-238 -354 0
-242 -356 0
-237 -360 0
-250 -297 0
-246 -295 0
-252 -291 0
-248 -296 0
-252 -290 0
-251 -290 0
-251 -297 0
-244 -293 0
-258 -275 0
-257 -277 0
-256 -275 0
-256 -273 0
-255 -278 0
-256 -279 0
-255 -279 0
-256 -277 0
-259 -287 0
-256 -281 0
-257 -288 0
-259 -281 0
-256 -280 0
-258 -288 0
-257 -283 0
-253 -286 0
-255 -290 0
-259 -293 0
-256 -296 0
-253 -295 0
-259 -292 0
-259 -296 0
-261 -296 0
-260 -291 0
-260 -298 0
-258 -305 0
-257 -305 0
-260 -301 0
-261 -306 0
-259 -300 0
-258 -306 0
-255 -302 0
-260 -317 0
-254 -324 0
-257 -319 0
-259 -320 0
-253 -316 0
-258 -317 0
-257 -321 0
-253 -324 0
-266 -299 0
-270 -299 0
-270 -298 0
-264 -306 0
-269 -299 0
-270 -303 0
-268 -299 0
-266 -300 0
-271 -300 0
-276 -300 0
-271 -305 0
-277 -298 0
-273 -302 0
-273 -301 0
-274 -299 0
-278 -302 0
-279 -307 0
-277 -312 0
-272 -314 0
-272 -311 0
-276 -314 0
-277 -308 0
-275 -314 0
-276 -315 0
-279 -342 0
-276 -338 0
-274 -338 0
-272 -338 0
-271 -339 0
-271 -338 0
-272 -334 0
-271 -335 0
-272 -349 0
-271 -347 0
-275 -351 0
-274 -345 0
-273 -350 0
-274 -350 0
-278 -346 0
-277 -350 0
-285 -307 0
-282 -309 0
-288 -307 0
-280 -308 0
-283 -315 0
-280 -312 0
-288 -308 0
-288 -312 0
-281 -340 0
-287 -337 0
-283 -335 0
-287 -342 0
-282 -334 0
-280 -334 0
-281 -336 0
-282 -336 0
-283 -345 0
-287 -351 0
-285 -346 0
-281 -351 0
-286 -347 0
-282 -349 0
-288 -351 0
-287 -345 0
-293 -301 0
-289 -304 0
-295 -299 0
-296 -300 0
-295 -304 0
-289 -303 0
-296 -305 0
-289 -298 0
-294 -315 0
-293 -313 0
-289 -315 0
-293 -314 0
-295 -314 0
-290 -309 0
-295 -308 0
-295 -313 0
-289 -336 0
-296 -335 0
-292 -338 0
-289 -342 0
-289 -337 0
-295 -340 0
-297 -341 0
-296 -341 0
-293 -343 0
-290 -343 0
-291 -346 0
-290 -349 0
-289 -348 0
-294 -351 0
-293 -346 0
-293 -344 0
-291 -357 0
-293 -355 0
-294 -357 0
-290 -359 0
-297 -359 0
-294 -356 0
-290 -352 0
-290 -358 0
-298 -355 0
-304 -355 0
-306 -352 0
-302 -356 0
-302 -354 0
-300 -358 0
-302 -355 0
-306 -353 0
-311 -334 0
-313 -342 0
-312 -341 0
-311 -336 0
-314 -334 0
-315 -342 0
-307 -334 0
-313 -339 0
-313 -356 0
-312 -352 0
-314 -353 0
-308 -353 0
-309 -360 0
-308 -358 0
-314 -357 0
-309 -355 0
-320 -331 0
-321 -330 0
-321 -332 0
-320 -329 0
-324 -329 0
-324 -333 0
-324 -326 0
-323 -328 0
-317 -354 0
-316 -352 0
-323 -358 0
-322 -352 0
-316 -360 0
-317 -355 0
-321 -352 0
-320 -353 0
-327 -338 0
-326 -338 0
-327 -336 0
-328 -335 0
-328 -338 0
-332 -336 0
-330 -335 0
-333 -339 0
-325 -353 0
-331 -355 0
-333 -356 0
-326 -356 0
-328 -360 0
-332 -357 0
-331 -357 0
-331 -354 0
